c --- [ banner ] -------------------------------------------------------------
c 
c CaDiCaL Radically Simplified CDCL SAT Solver
c Copyright (c) 2016-2021 A. Biere, M. Fleury, N. Froleyks
c 
c Version 1.5.2 ca9bff05c11bde5eae4912f9932871d1527e61d8
c g++ (GCC) 9.3.0 -Wall -Wextra -O3 -DNDEBUG
c Sun May 1 02:23:23 EDT 2022 Linux gra-login1 3.10.0-1160.59.1.el7.x86_64 x86_64
c 
c --- [ limit ] --------------------------------------------------------------
c 
c setting conflict limit to 200000 conflicts (due to '200000')
c 
c --- [ parsing input ] ------------------------------------------------------
c 
c reading DIMACS file from '26.cubes818.adj'
c opening file to read '26.cubes818.adj'
c found 'p cnf 5320 924215' header
c parsed 924215 clauses in 8.41 seconds process time
c closing file '26.cubes818.adj'
c after reading 686668149 bytes 654.9 MB
c 
c --- [ options ] ------------------------------------------------------------
c 
c all options are set to their default value
c 
c --- [ solving ] ------------------------------------------------------------
c 
c time measured in process time since initialization
c 
c  seconds   reductions  redundant  irredundant
c          MB    restarts       trail      variables
c           level   conflicts       glue        remaining
c 
c *  8.41 689  0 0   0    0    0  0% 0 923580 4047 76%
c {  9.30 729  0 0   0    0    0  0% 0 923580 4047 76%
c i  9.91 742 145 0   0    8    5 51% 13 923580 4027 76%
c i 10.12 746 98 0   1   39   26 51% 11 923580 4024 76%
c i 10.15 746 84 0   1   45   29 48% 9 923580 4004 75%
c i 10.21 747 48 0   1   75   36 40% 7 923580 3983 75%
c i 11.50 772 56 0  11  122   79 44% 19 923580 3973 75%
c - 17.44 786 73 1  44  300  215 46% 28 453156 3973 75%
c i 17.54 741 73 1  44  301  215 46% 28 453156 3972 75%
c i 17.83 741 71 1  47  317  229 46% 28 453156 3971 75%
c i 18.03 742 69 1  47  331  240 47% 27 453156 3970 75%
c i 18.14 742 67 1  47  367  272 47% 27 453156 3969 75%
c i 18.14 742 67 1  47  368  272 47% 27 453156 3968 75%
c i 18.51 742 65 1  50  432  327 48% 28 453156 3967 75%
c i 18.54 742 65 1  50  435  329 48% 27 453156 3966 75%
c i 18.85 743 62 1  50  492  377 49% 27 453156 3965 75%
c i 18.87 743 61 1  50  496  380 49% 27 453156 3964 75%
c i 18.87 743 61 1  50  498  381 49% 27 453156 3963 74%
c i 18.98 744 62 1  50  506  387 49% 27 453156 3961 74%
c i 18.99 744 63 1  50  508  388 49% 27 453156 3960 74%
c 
c  seconds   reductions  redundant   irredundant
c          MB    restarts       trail       variables
c           level   conflicts       glue         remaining
c 
c i 19.13 744 65 1  53  525  403 49% 29 453156 3959 74%
c i 19.42 744 65 1  57  543  418 49% 29 453156 3958 74%
c i 19.48 744 65 1  59  550  423 49% 29 453156 3957 74%
c i 19.49 744 65 1  59  551  423 49% 29 453156 3956 74%
c i 19.78 745 65 1  65  577  448 49% 29 453156 3955 74%
c i 20.52 746 69 1  77  627  494 49% 32 453156 3954 74%
c i 21.55 747 66 1  92  762  584 49% 30 453156 3953 74%
c i 21.58 747 66 1  92  767  588 49% 30 453156 3952 74%
c i 22.08 748 70 1  95  828  637 49% 31 453156 3951 74%
c i 23.12 749 70 1 109  923  708 49% 31 453156 3880 73%
c i 23.20 749 69 1 109  932  715 49% 31 453156 3879 73%
c i 23.21 749 69 1 109  940  720 49% 31 453156 3878 73%
c i 23.27 749 69 1 109  952  731 49% 31 453156 3877 73%
c i 23.31 749 68 1 109  974  750 49% 30 453156 3876 73%
c i 23.32 749 67 1 109  976  751 49% 30 453156 3875 73%
c i 23.32 749 67 1 109  978  752 49% 30 453156 3874 73%
c } 23.35 749 67 1 109 1001  773 50% 30 453156 3874 73%
c [ 23.35 749  0 1 109 1001  773  0% 0 453156 3874 73%
c O 23.36 749  6 1 109 1002  774 29% 1 453156 3865 73%
c i 23.59 749  7 1 109 1013  780 35% 6 453156 3864 73%
c 
c  seconds   reductions  redundant   irredundant
c          MB    restarts       trail       variables
c           level   conflicts       glue         remaining
c 
c i 23.80 749 16 1 109 1045  805 53% 13 453156 3863 73%
c i 23.81 749 16 1 109 1049  808 53% 13 453156 3862 73%
c i 23.99 749 18 1 109 1139  875 56% 15 453156 3861 73%
c i 24.08 749 19 1 109 1218  929 56% 16 453156 3860 73%
c i 24.13 749 19 1 109 1268  969 57% 16 453156 3859 73%
c - 24.93 920 20 2 109 1293  875 57% 16 452250 3859 73%
c i 25.33 920 20 2 109 1395  934 57% 17 452250 3858 73%
c i 25.47 920 22 2 109 1504 1004 57% 19 452250 3857 72%
c i 25.48 920 22 2 109 1520 1007 57% 19 452250 3856 72%
c i 25.48 920 22 2 109 1521 1007 57% 19 452250 3855 72%
c i 25.54 920 22 2 109 1600 1058 57% 19 452250 3854 72%
c i 25.76 920 24 2 109 1862 1227 56% 21 452250 3853 72%
c i 25.77 920 24 2 109 1868 1230 56% 21 452250 3852 72%
c i 26.05 920 25 2 110 2238 1448 56% 22 452250 3851 72%
c i 26.45 920 25 2 110 2689 1695 56% 22 452250 3850 72%
c - 26.95 917 24 3 110 2783 1305 56% 22 452223 3850 72%
c ] 27.71 877 27 3 110 3001 1445 36% 24 452223 3850 72%
c { 27.71 877 67 3 110 3001 1445 68% 30 452223 3850 72%
c F 27.75 877 67 3 110 3006 1448 68% 30 452223 3850 72%
c i 27.75 877 67 3 110 3006 1448 68% 30 452223 3849 72%
c 
c  seconds   reductions  redundant   irredundant
c          MB    restarts       trail       variables
c           level   conflicts       glue         remaining
c 
c i 28.59 877 62 3 110 3129 1559 64% 28 452223 3848 72%
c i 29.41 877 60 3 114 3317 1726 60% 27 452223 3847 72%
c i 29.99 877 59 3 119 3489 1878 58% 27 452223 3846 72%
c i 31.05 877 49 3 119 4354 2605 51% 25 452223 3845 72%
c i 31.35 877 49 3 131 4421 2662 51% 25 452223 3844 72%
c i 32.43 877 51 3 154 4511 2744 50% 26 452223 3843 72%
c i 33.25 877 52 3 177 4608 2826 50% 27 452223 3842 72%
c i 33.56 877 52 3 185 4632 2848 49% 27 452223 3841 72%
c - 35.10 874 54 4 216 4769 2210 49% 28 452196 3841 72%
c i 35.26 874 53 4 218 4791 2221 48% 28 452196 3840 72%
c d 36.05 874 52 4 218 5000 2407 48% 27 438115 3828 72%
c 2 36.16 874 52 4 218 5000 3602 48% 27 438046 3828 72%
c p 42.49 874 52 4 218 5000 6976 48% 27 438046 3792 71%
c d 42.99 874 52 4 218 5000 6875 48% 27 437940 3791 71%
c # 44.83 874 46 4 228 6009 7615 45% 26 437940 3791 71%
c } 46.44 874 42 4 231 7007 8364 43% 24 437940 3791 71%
c [ 46.44 874 27 4 231 7007 8364 36% 24 437940 3791 71%
c - 47.03 867 27 5 232 7251 3049 37% 23 437940 3791 71%
c I 49.72 867 27 5 233 10012 5391 38% 23 437940 3791 71%
c - 50.58 867 26 6 233 10205 3911 38% 22 437940 3791 71%
c 
c  seconds   reductions   redundant   irredundant
c          MB    restarts        trail       variables
c           level    conflicts       glue         remaining
c 
c - 54.20 867 25 7 236 13651 4057 37% 20 437940 3791 71%
c 2 55.92 867 24 7 236 15000 6074 37% 20 437939 3791 71%
c p 57.34 867 24 7 236 15000 9787 37% 20 437939 3791 71%
c ] 57.49 867 24 7 236 15009 9794 37% 20 437939 3791 71%
c { 57.49 867 42 7 236 15009 9794 43% 24 437939 3791 71%
c B 57.64 867 42 7 236 15016 9799 43% 24 437939 3791 71%
c s 60.03 867 41 7 284 15669 10079 42% 24 436299 3791 71%
c v 67.17 867 41 7 284 15669 10079 42% 24 436095 3791 71%
c t 67.36 867 41 7 284 15669 10055 42% 24 436053 3791 71%
c e 68.37 867 41 7 284 15669 6480 42% 24 430686 1033 19%
c s 68.50 867 41 7 284 15669 6479 42% 24 430232 1033 19%
c i 73.90 867 40 7 378 17078 7633 62% 24 430232 1032 19%
c - 75.39 867 40 8 384 17590 5254 60% 23 430229 1032 19%
c W 80.54 867 35 8 485 21017 7546 62% 21 430229 1032 19%
c - 85.56 867 38 9 701 22000 5738 61% 22 430229 1032 19%
c - 99.45 867 36 10 976 26903 7125 61% 22 430229 1032 19%
c F 100.48 867 35 10 976 28018 7968 61% 22 430229 1032 19%
c p 108.34 867 36 10 1118 30000 11991 62% 22 430229 1032 19%
c } 110.62 867 35 10 1167 31011 12774 62% 22 430229 1032 19%
c [ 110.62 867 24 10 1167 31011 12774 136% 20 430229 1032 19%
c 
c  seconds    reductions     redundant    irredundant
c           MB     restarts         trail        variables
c            level      conflicts        glue         remaining
c 
c - 112.20 868 27 11 1167 32295 8263 126% 22 430229 1032 19%
c B 114.98 867 33 11 1170 36023 11009 107% 27 430229 1032 19%
c - 116.79 868 33 12 1171 38177 8496 101% 27 430229 1032 19%
c - 122.45 868 32 13 1174 44548 8571 89% 27 430229 1032 19%
c W 124.90 868 32 13 1174 45024 8887 88% 27 430229 1032 19%
c p 130.47 868 31 13 1175 50007 14322 83% 27 430229 1032 19%
c s 131.35 868 31 13 1175 50480 14579 83% 27 429016 1032 19%
c v 137.46 868 31 13 1175 50480 14579 83% 27 428941 1032 19%
c t 137.68 868 31 13 1175 50480 14572 83% 27 428941 1032 19%
c e 138.67 870 31 13 1175 50480 14547 83% 27 428938 1029 19%
c s 138.86 870 31 13 1175 50480 14547 83% 27 428298 1029 19%
c - 141.31 870 31 14 1175 51409 8433 82% 26 428298 1029 19%
c O 144.75 870 30 14 1176 55026 10501 80% 26 428298 1029 19%
c - 148.16 870 29 15 1179 58752 8685 78% 25 428298 1029 19%
c ] 152.03 870 28 15 1182 63013 11112 77% 25 428298 1029 19%
c { 152.03 870 35 15 1182 63013 11112 62% 22 428298 1029 19%
c B 154.78 870 33 15 1189 66028 12943 62% 21 428298 1029 19%
c - 155.87 870 33 16 1213 66587 9626 62% 21 428298 1029 19%
c - 171.27 870 32 17 1627 74912 10918 62% 22 428298 1029 19%
c p 173.20 870 33 17 1652 75007 13876 62% 22 428298 1029 19%
c 
c  seconds    reductions      redundant   irredundant
c           MB     restarts          trail       variables
c            level      conflicts        glue         remaining
c 
c W 178.61 870 32 17 1832 78033 15906 62% 22 428298 1029 19%
c - 180.45 870 30 18 1849 83723 11180 63% 21 428298 1029 19%
c # 182.56 870 28 18 1853 91036 15779 63% 20 428298 1029 19%
c - 186.40 870 28 19 1953 93023 11909 63% 20 428298 1029 19%
c - 199.26 870 27 20 2240 102813 13089 63% 20 428298 1029 19%
c p 202.14 870 27 20 2240 105007 17829 63% 20 428298 1029 19%
c B 202.48 870 27 20 2240 105038 17852 63% 20 428298 1029 19%
c } 204.80 870 27 20 2310 107315 19276 63% 19 428298 1029 19%
c 1 204.80 870 27 20 2310 107315 19276 63% 19 428298 1029 19%
c 
c --- [ writing output ] -----------------------------------------------------
c 
c writing simplified CNF to DIMACS file 'simp/26.cubes818.adj.simp1'
c * 204.80 870 27 20 2310 107315 19276 63% 19 428298 1029 19%
c opening file to write 'simp/26.cubes818.adj.simp1'
c writing 'p cnf 5320 428298' header
c closing file 'simp/26.cubes818.adj.simp1'
c after writing 174492791 bytes 166.4 MB
c wrote 428298 clauses in 1.07 seconds process time
c 
c --- [ writing extension ] --------------------------------------------------
c 
c writing extension stack to 'simp/26.cubes818.adj.ext1'
c opening file to write 'simp/26.cubes818.adj.ext1'
c closing file 'simp/26.cubes818.adj.ext1'
c after writing 175287 bytes 0.2 MB
c wrote 7725 witnesses in 0.00 seconds process time
c 
c --- [ result ] -------------------------------------------------------------
c 
s SATISFIABLE
c 
c --- [ run-time profiling ] -------------------------------------------------
c 
c process time taken by individual solving procedures
c (percentage relative to process time for solving)
c 
c       163.62   83.32% search
c       116.77   59.46% unstable
c        43.74   22.27% stable
c        32.77   16.68% simplify
c        13.56    6.91% vivify
c        13.03    6.63% probe
c         8.41    4.28% parse
c         3.71    1.89% elim
c         2.22    1.13% walk
c         0.89    0.45% lucky
c         0.63    0.32% subsume
c         0.34    0.17% ternary
c   =================================
c       196.38   95.39% solve
c 
c last line shows process time for solving
c (percentage relative to total process time)
c 
c --- [ statistics ] ---------------------------------------------------------
c 
c chronological:             19149        17.84 %  of conflicts
c conflicts:                107315       546.46    per second
c decisions:                252966      1288.13    per second
c eliminated:                 2761        51.90 %  of all variables
c fixed:                      1517        28.52 %  of all variables
c learned:                  104867        97.72 %  per conflict
c learned_lits:           18613448       100.00 %  learned literals
c minimized:                     0         0.00 %  learned literals
c shrunken:               11639769        62.53 %  learned literals
c minishrunken:            1374580         7.38 %  learned literals
c propagations:            9692588         0.05 M  per second
c reduced:                   57129        53.23 %  per conflict
c rephased:                     14      7665.36    interval
c restarts:                   2310        46.46    interval
c stabilizing:                   3        39.14 %  of conflicts
c substituted:                  13         0.24 %  of all variables
c subsumed:                  35982         1.58 %  of all clauses
c strengthened:               7317         0.32 %  of all clauses
c ternary:                    5323         0.51 %  of resolved
c vivified:                    294         0.01 %  of all clauses
c walked:                        3     35771.67    interval
c weakened:                   6208         3.12    average size
c 
c seconds are measured in process time for solving
c 
c --- [ resources ] ----------------------------------------------------------
c 
c total process time since initialization:       205.87    seconds
c total real time since initialization:          206.44    seconds
c maximum resident set size of process:         1087.19    MB
c 
c --- [ shutting down ] ------------------------------------------------------
c 
c exit 10
WARNING! DIMACS header mismatch: wrong number of variables.
============================[ Problem Statistics ]=============================
|                                                                             |
|  Number of variables:          3679                                         |
|  Number of clauses:          428300                                         |
|  Parse time:                   2.52 s                                       |
|  Simplification time:          0.07 s                                       |
|                                                                             |
============================[ Search Statistics ]====================================================
| Conflicts |          ORIGINAL         |          LEARNT          | Num Sols |      SUBGRAPHS      |
|           |    Vars  Clauses Literals |    Limit  Clauses Lit/Cl |          | Canonical Noncanon. |
=====================================================================================================
|       100 |    3602   428300 38874545 |     2000      100    158 |        0 |        18         0 |
|       258 |    3602   428308 38874673 |     2000      258    134 |        0 |        31         8 |
|       879 |    3602   428704 38883665 |     2000      879     72 |        0 |       183       404 |
|      1256 |    3602   428744 38884477 |     2000     1256     86 |        0 |       204       444 |
|      1858 |    3602   428840 38886615 |     2000     1858     86 |        0 |       230       540 |
|      2619 |    3602   428842 38886647 |     3602     1621     58 |        0 |       260       542 |
|      3775 |    3602   428859 38887025 |     3602     2777     75 |        0 |       275       559 |
|      6368 |    3602   429744 38904244 |     5002     3570     52 |        0 |       518      1444 |
|      9049 |    3602   429863 38906921 |     6303     3752     53 |        0 |       603      1563 |
|     13331 |    3602   430301 38916234 |     7564     4895     48 |        0 |       759      2001 |
|     19160 |    3602   430364 38917878 |     8790     6950     69 |        0 |       794      2064 |
|     28924 |    3602   431479 38943934 |    11203     7327     48 |        0 |      1087      3179 |
|     42703 |    3602   432284 38960737 |    13606     9309     51 |        0 |      1331      3984 |
|     64336 |    3602   434456 39007572 |    17209     8745     34 |        0 |      1727      6156 |
|     94199 |    3602   435127 39022066 |    20812    11011     33 |        0 |      2033      6827 |
|    142372 |    3602   439511 39093153 |    25607    13979     30 |        0 |      2654     11211 |
|    209002 |    3602   440457 39114530 |    30417    25819     55 |        0 |      3069     12157 |
|    309385 |    3602   442314 39158422 |    37617    26002     48 |        0 |      3806     14014 |
|    458168 |    3602   443308 39180250 |    46024    30592     50 |        0 |      4526     15008 |
|    681402 |    3602   444859 39211148 |    55615    53017     63 |        0 |      5067     16559 |
|   1014525 |    3602   445457 39225891 |    68812    47337     49 |        0 |      5470     17157 |
|   1514400 |    3602   446544 39253646 |    84419    53219     45 |        0 |      6007     18244 |
|   2265013 |    3602   448975 39314154 |   103618    56631     37 |        0 |      6661     20675 |
|   3420929 |    3602   482617 40188345 |   126422   125751     67 |        0 |      9411     54317 |
|   5157165 |    3602   535442 41385647 |   156420   101985     48 |        0 |     14431    107142 |
|   7719622 |    3602   572783 42160930 |   191233   153055     60 |        0 |     21118    144483 |
|  11725160 |    3602   790646 46327237 |   235618   221778     71 |        0 |     52879    362346 |
|  17479837 |    3602   863811 47700939 |   288431   225668     57 |        0 |     62730    435511 |
|  26350014 |    3602  1211719 53727968 |   354424   273838     47 |        0 |     97849    783419 |
slurmstepd: error: *** JOB 61843839 ON gra1238 CANCELLED AT 2022-06-09T10:55:56 DUE TO TIME LIMIT ***
